nNurses = 159;
nHours = 36;
minHours = 6;
maxHours = 14;
maxConsec = 14;
maxPresence = 16;
demand = [38, 40, 44, 42, 45, 43, 44, 43, 39, 34, 33, 38, 43, 45, 48, 50, 48, 48, 45, 45, 50, 45, 43, 44, 42, 38, 41, 36, 34, 38, 39, 35, 31, 31, 31, 34];
